p cnf 386 460
-2 18 -11 21 22 0
-2 18 -11 21 -22 0
-2 18 -11 -21 23 0
-2 18 -11 -21 -23 0
19 -9 -17 24 25 0
19 -9 -17 24 -25 0
19 -9 -17 -24 26 0
19 -9 -17 -24 -26 0
4 18 -2 27 28 0
4 18 -2 27 -28 0
4 18 -2 -27 29 0
4 18 -2 -27 -29 0
-17 -4 -10 30 31 0
-17 -4 -10 30 -31 0
-17 -4 -10 -30 32 0
-17 -4 -10 -30 -32 0
11 19 -16 33 34 0
11 19 -16 33 -34 0
11 19 -16 -33 35 0
11 19 -16 -33 -35 0
-7 18 -4 36 37 0
-7 18 -4 36 -37 0
-7 18 -4 -36 38 0
-7 18 -4 -36 -38 0
-16 -15 7 39 40 0
-16 -15 7 39 -40 0
-16 -15 7 -39 41 0
-16 -15 7 -39 -41 0
8 1 -3 42 43 0
8 1 -3 42 -43 0
8 1 -3 -42 44 0
8 1 -3 -42 -44 0
14 -20 10 45 46 0
14 -20 10 45 -46 0
14 -20 10 -45 47 0
14 -20 10 -45 -47 0
14 13 19 48 49 0
14 13 19 48 -49 0
14 13 19 -48 50 0
14 13 19 -48 -50 0
-18 -17 -3 51 52 0
-18 -17 -3 51 -52 0
-18 -17 -3 -51 53 0
-18 -17 -3 -51 -53 0
9 -8 -5 54 55 0
9 -8 -5 54 -55 0
9 -8 -5 -54 56 0
9 -8 -5 -54 -56 0
-16 -20 5 57 58 0
-16 -20 5 57 -58 0
-16 -20 5 -57 59 0
-16 -20 5 -57 -59 0
10 3 14 60 61 0
10 3 14 60 -61 0
10 3 14 -60 62 0
10 3 14 -60 -62 0
15 6 8 63 64 0
15 6 8 63 -64 0
15 6 8 -63 65 0
15 6 8 -63 -65 0
-1 11 17 66 67 0
-1 11 17 66 -67 0
-1 11 17 -66 68 0
-1 11 17 -66 -68 0
20 13 -19 69 70 0
20 13 -19 69 -70 0
20 13 -19 -69 71 0
20 13 -19 -69 -71 0
-2 -7 3 72 73 0
-2 -7 3 72 -73 0
-2 -7 3 -72 74 0
-2 -7 3 -72 -74 0
7 2 19 75 76 0
7 2 19 75 -76 0
7 2 19 -75 77 0
7 2 19 -75 -77 0
2 15 -14 78 79 0
2 15 -14 78 -79 0
2 15 -14 -78 80 0
2 15 -14 -78 -80 0
-6 14 -15 81 82 0
-6 14 -15 81 -82 0
-6 14 -15 -81 83 0
-6 14 -15 -81 -83 0
-19 15 -12 84 85 0
-19 15 -12 84 -85 0
-19 15 -12 -84 86 0
-19 15 -12 -84 -86 0
-16 -2 6 87 88 0
-16 -2 6 87 -88 0
-16 -2 6 -87 89 0
-16 -2 6 -87 -89 0
5 -6 -7 90 91 0
5 -6 -7 90 -91 0
5 -6 -7 -90 92 0
5 -6 -7 -90 -92 0
10 -15 -3 93 94 0
10 -15 -3 93 -94 0
10 -15 -3 -93 95 0
10 -15 -3 -93 -95 0
6 7 -14 96 97 0
6 7 -14 96 -97 0
6 7 -14 -96 98 0
6 7 -14 -96 -98 0
-3 2 4 99 100 0
-3 2 4 99 -100 0
-3 2 4 -99 101 0
-3 2 4 -99 -101 0
-16 5 -8 102 103 0
-16 5 -8 102 -103 0
-16 5 -8 -102 104 0
-16 5 -8 -102 -104 0
18 9 -19 105 106 0
18 9 -19 105 -106 0
18 9 -19 -105 107 0
18 9 -19 -105 -107 0
-11 -16 -3 108 109 0
-11 -16 -3 108 -109 0
-11 -16 -3 -108 110 0
-11 -16 -3 -108 -110 0
13 2 -6 111 112 0
13 2 -6 111 -112 0
13 2 -6 -111 113 0
13 2 -6 -111 -113 0
8 -12 2 114 115 0
8 -12 2 114 -115 0
8 -12 2 -114 116 0
8 -12 2 -114 -116 0
-3 18 12 117 118 0
-3 18 12 117 -118 0
-3 18 12 -117 119 0
-3 18 12 -117 -119 0
-14 9 -2 120 121 0
-14 9 -2 120 -121 0
-14 9 -2 -120 122 0
-14 9 -2 -120 -122 0
-5 -18 17 123 124 0
-5 -18 17 123 -124 0
-5 -18 17 -123 125 0
-5 -18 17 -123 -125 0
2 -15 -7 126 127 0
2 -15 -7 126 -127 0
2 -15 -7 -126 128 0
2 -15 -7 -126 -128 0
-15 1 9 129 130 0
-15 1 9 129 -130 0
-15 1 9 -129 131 0
-15 1 9 -129 -131 0
-11 -19 -7 132 133 0
-11 -19 -7 132 -133 0
-11 -19 -7 -132 134 0
-11 -19 -7 -132 -134 0
-17 -6 4 135 136 0
-17 -6 4 135 -136 0
-17 -6 4 -135 137 0
-17 -6 4 -135 -137 0
10 -7 9 138 139 0
10 -7 9 138 -139 0
10 -7 9 -138 140 0
10 -7 9 -138 -140 0
17 11 16 141 142 0
17 11 16 141 -142 0
17 11 16 -141 143 0
17 11 16 -141 -143 0
16 -19 -11 144 145 0
16 -19 -11 144 -145 0
16 -19 -11 -144 146 0
16 -19 -11 -144 -146 0
-10 9 13 147 148 0
-10 9 13 147 -148 0
-10 9 13 -147 149 0
-10 9 13 -147 -149 0
-11 -20 -10 150 151 0
-11 -20 -10 150 -151 0
-11 -20 -10 -150 152 0
-11 -20 -10 -150 -152 0
-3 20 7 153 154 0
-3 20 7 153 -154 0
-3 20 7 -153 155 0
-3 20 7 -153 -155 0
-1 -19 -13 156 157 0
-1 -19 -13 156 -157 0
-1 -19 -13 -156 158 0
-1 -19 -13 -156 -158 0
-6 -16 -14 159 160 0
-6 -16 -14 159 -160 0
-6 -16 -14 -159 161 0
-6 -16 -14 -159 -161 0
10 19 2 162 163 0
10 19 2 162 -163 0
10 19 2 -162 164 0
10 19 2 -162 -164 0
-16 -1 -10 165 166 0
-16 -1 -10 165 -166 0
-16 -1 -10 -165 167 0
-16 -1 -10 -165 -167 0
-12 3 4 168 169 0
-12 3 4 168 -169 0
-12 3 4 -168 170 0
-12 3 4 -168 -170 0
-13 -17 20 171 172 0
-13 -17 20 171 -172 0
-13 -17 20 -171 173 0
-13 -17 20 -171 -173 0
8 -6 -2 174 175 0
8 -6 -2 174 -175 0
8 -6 -2 -174 176 0
8 -6 -2 -174 -176 0
17 -16 -13 177 178 0
17 -16 -13 177 -178 0
17 -16 -13 -177 179 0
17 -16 -13 -177 -179 0
18 -19 15 180 181 0
18 -19 15 180 -181 0
18 -19 15 -180 182 0
18 -19 15 -180 -182 0
20 -2 -13 183 184 0
20 -2 -13 183 -184 0
20 -2 -13 -183 185 0
20 -2 -13 -183 -185 0
6 9 14 186 187 0
6 9 14 186 -187 0
6 9 14 -186 188 0
6 9 14 -186 -188 0
-11 -9 12 189 190 0
-11 -9 12 189 -190 0
-11 -9 12 -189 191 0
-11 -9 12 -189 -191 0
-3 -12 4 192 193 0
-3 -12 4 192 -193 0
-3 -12 4 -192 194 0
-3 -12 4 -192 -194 0
14 -11 20 195 196 0
14 -11 20 195 -196 0
14 -11 20 -195 197 0
14 -11 20 -195 -197 0
-18 -17 12 198 199 0
-18 -17 12 198 -199 0
-18 -17 12 -198 200 0
-18 -17 12 -198 -200 0
-7 -5 -15 201 202 0
-7 -5 -15 201 -202 0
-7 -5 -15 -201 203 0
-7 -5 -15 -201 -203 0
-6 -1 -4 204 205 0
-6 -1 -4 204 -205 0
-6 -1 -4 -204 206 0
-6 -1 -4 -204 -206 0
6 15 11 207 208 0
6 15 11 207 -208 0
6 15 11 -207 209 0
6 15 11 -207 -209 0
11 -4 -15 210 211 0
11 -4 -15 210 -211 0
11 -4 -15 -210 212 0
11 -4 -15 -210 -212 0
-20 -10 8 213 214 0
-20 -10 8 213 -214 0
-20 -10 8 -213 215 0
-20 -10 8 -213 -215 0
-18 7 12 216 217 0
-18 7 12 216 -217 0
-18 7 12 -216 218 0
-18 7 12 -216 -218 0
-7 12 -2 219 220 0
-7 12 -2 219 -220 0
-7 12 -2 -219 221 0
-7 12 -2 -219 -221 0
-10 15 -9 222 223 0
-10 15 -9 222 -223 0
-10 15 -9 -222 224 0
-10 15 -9 -222 -224 0
-4 14 -2 225 226 0
-4 14 -2 225 -226 0
-4 14 -2 -225 227 0
-4 14 -2 -225 -227 0
-10 3 18 228 229 0
-10 3 18 228 -229 0
-10 3 18 -228 230 0
-10 3 18 -228 -230 0
11 -9 -16 231 232 0
11 -9 -16 231 -232 0
11 -9 -16 -231 233 0
11 -9 -16 -231 -233 0
-9 -7 -19 234 235 0
-9 -7 -19 234 -235 0
-9 -7 -19 -234 236 0
-9 -7 -19 -234 -236 0
9 -10 -1 237 238 0
9 -10 -1 237 -238 0
9 -10 -1 -237 239 0
9 -10 -1 -237 -239 0
12 7 -1 240 241 0
12 7 -1 240 -241 0
12 7 -1 -240 242 0
12 7 -1 -240 -242 0
-20 13 -17 243 244 0
-20 13 -17 243 -244 0
-20 13 -17 -243 245 0
-20 13 -17 -243 -245 0
-2 -17 8 246 247 0
-2 -17 8 246 -247 0
-2 -17 8 -246 248 0
-2 -17 8 -246 -248 0
-14 8 9 249 250 0
-14 8 9 249 -250 0
-14 8 9 -249 251 0
-14 8 9 -249 -251 0
6 15 14 252 253 0
6 15 14 252 -253 0
6 15 14 -252 254 0
6 15 14 -252 -254 0
5 14 13 255 256 0
5 14 13 255 -256 0
5 14 13 -255 257 0
5 14 13 -255 -257 0
-19 -3 16 258 259 0
-19 -3 16 258 -259 0
-19 -3 16 -258 260 0
-19 -3 16 -258 -260 0
13 -1 -18 261 262 0
13 -1 -18 261 -262 0
13 -1 -18 -261 263 0
13 -1 -18 -261 -263 0
-3 12 4 264 265 0
-3 12 4 264 -265 0
-3 12 4 -264 266 0
-3 12 4 -264 -266 0
15 -9 5 267 268 0
15 -9 5 267 -268 0
15 -9 5 -267 269 0
15 -9 5 -267 -269 0
14 20 6 270 271 0
14 20 6 270 -271 0
14 20 6 -270 272 0
14 20 6 -270 -272 0
-3 6 4 273 274 0
-3 6 4 273 -274 0
-3 6 4 -273 275 0
-3 6 4 -273 -275 0
10 6 -3 276 277 0
10 6 -3 276 -277 0
10 6 -3 -276 278 0
10 6 -3 -276 -278 0
12 -15 -2 279 280 0
12 -15 -2 279 -280 0
12 -15 -2 -279 281 0
12 -15 -2 -279 -281 0
18 8 16 282 283 0
18 8 16 282 -283 0
18 8 16 -282 284 0
18 8 16 -282 -284 0
19 2 -5 285 286 0
19 2 -5 285 -286 0
19 2 -5 -285 287 0
19 2 -5 -285 -287 0
8 -10 17 288 289 0
8 -10 17 288 -289 0
8 -10 17 -288 290 0
8 -10 17 -288 -290 0
14 20 3 291 292 0
14 20 3 291 -292 0
14 20 3 -291 293 0
14 20 3 -291 -293 0
294 295 297 301 309 0
294 295 297 301 -309 0
294 295 297 -301 310 0
294 295 297 -301 -310 0
294 295 -297 302 311 0
294 295 -297 302 -311 0
294 295 -297 -302 312 0
294 295 -297 -302 -312 0
294 -295 298 303 313 0
294 -295 298 303 -313 0
294 -295 298 -303 314 0
294 -295 298 -303 -314 0
294 -295 -298 304 315 0
294 -295 -298 304 -315 0
294 -295 -298 -304 316 0
294 -295 -298 -304 -316 0
-294 296 299 305 317 0
-294 296 299 305 -317 0
-294 296 299 -305 318 0
-294 296 299 -305 -318 0
-294 296 -299 306 319 0
-294 296 -299 306 -319 0
-294 296 -299 -306 320 0
-294 296 -299 -306 -320 0
-294 -296 300 307 321 0
-294 -296 300 307 -321 0
-294 -296 300 -307 322 0
-294 -296 300 -307 -322 0
-294 -296 -300 308 323 0
-294 -296 -300 308 -323 0
-294 -296 -300 -308 324 0
-294 -296 -300 -308 -324 0
325 326 328 332 340 0
325 326 328 332 -340 0
325 326 328 -332 341 0
325 326 328 -332 -341 0
325 326 -328 333 342 0
325 326 -328 333 -342 0
325 326 -328 -333 343 0
325 326 -328 -333 -343 0
325 -326 329 334 344 0
325 -326 329 334 -344 0
325 -326 329 -334 345 0
325 -326 329 -334 -345 0
325 -326 -329 335 346 0
325 -326 -329 335 -346 0
325 -326 -329 -335 347 0
325 -326 -329 -335 -347 0
-325 327 330 336 348 0
-325 327 330 336 -348 0
-325 327 330 -336 349 0
-325 327 330 -336 -349 0
-325 327 -330 337 350 0
-325 327 -330 337 -350 0
-325 327 -330 -337 351 0
-325 327 -330 -337 -351 0
-325 -327 331 338 352 0
-325 -327 331 338 -352 0
-325 -327 331 -338 353 0
-325 -327 331 -338 -353 0
-325 -327 -331 339 354 0
-325 -327 -331 339 -354 0
-325 -327 -331 -339 355 0
-325 -327 -331 -339 -355 0
356 357 359 363 371 0
356 357 359 363 -371 0
356 357 359 -363 372 0
356 357 359 -363 -372 0
356 357 -359 364 373 0
356 357 -359 364 -373 0
356 357 -359 -364 374 0
356 357 -359 -364 -374 0
356 -357 360 365 375 0
356 -357 360 365 -375 0
356 -357 360 -365 376 0
356 -357 360 -365 -376 0
356 -357 -360 366 377 0
356 -357 -360 366 -377 0
356 -357 -360 -366 378 0
356 -357 -360 -366 -378 0
-356 358 361 367 379 0
-356 358 361 367 -379 0
-356 358 361 -367 380 0
-356 358 361 -367 -380 0
-356 358 -361 368 381 0
-356 358 -361 368 -381 0
-356 358 -361 -368 382 0
-356 358 -361 -368 -382 0
-356 -358 362 369 383 0
-356 -358 362 369 -383 0
-356 -358 362 -369 384 0
-356 -358 362 -369 -384 0
-356 -358 -362 370 385 0
-356 -358 -362 370 -385 0
-356 -358 -362 -370 386 0
-356 -358 -362 -370 -386 0

